p cnf 587 1381
1 0
2 0
3 0
4 0
5 0
6 0
7 0
8 0
9 0
10 0
-11 0
-12 0
-13 0
-14 0
-15 0
-16 0
-17 0
-18 0
-19 0
-20 0
-21 22 0
23 22 0
21 -23 -22 0
1 -22 0
-1 22 0
-24 25 0
26 25 0
24 -26 -25 0
27 -25 0
-27 25 0
-28 29 0
30 29 0
28 -30 -29 0
2 -29 0
-2 29 0
-31 32 0
33 32 0
31 -33 -32 0
34 -32 0
-34 32 0
-35 36 0
37 36 0
35 -37 -36 0
38 -36 0
-38 36 0
-39 40 0
41 40 0
39 -41 -40 0
42 -40 0
-42 40 0
-43 44 0
45 44 0
43 -45 -44 0
46 -44 0
-46 44 0
-47 48 0
49 48 0
47 -49 -48 0
3 -48 0
-3 48 0
-50 51 0
52 51 0
50 -52 -51 0
53 -51 0
-53 51 0
-54 55 0
56 55 0
54 -56 -55 0
57 -55 0
-57 55 0
-58 59 0
60 59 0
58 -60 -59 0
61 -59 0
-61 59 0
-62 63 0
64 63 0
62 -64 -63 0
65 -63 0
-65 63 0
-66 67 0
68 67 0
66 -68 -67 0
69 -67 0
-69 67 0
-70 71 0
72 71 0
70 -72 -71 0
4 -71 0
-4 71 0
-73 74 0
75 74 0
73 -75 -74 0
76 -74 0
-76 74 0
-77 78 0
79 78 0
77 -79 -78 0
80 -78 0
-80 78 0
-81 82 0
83 82 0
81 -83 -82 0
84 -82 0
-84 82 0
-85 86 0
87 86 0
85 -87 -86 0
88 -86 0
-88 86 0
-89 90 0
91 90 0
89 -91 -90 0
92 -90 0
-92 90 0
-93 94 0
95 94 0
93 -95 -94 0
5 -94 0
-5 94 0
-96 97 0
98 97 0
96 -98 -97 0
99 -97 0
-99 97 0
-100 101 0
102 101 0
100 -102 -101 0
103 -101 0
-103 101 0
-104 105 0
106 105 0
104 -106 -105 0
107 -105 0
-107 105 0
-108 109 0
110 109 0
108 -110 -109 0
6 -109 0
-6 109 0
-111 112 0
113 112 0
111 -113 -112 0
114 -112 0
-114 112 0
-115 116 0
117 116 0
115 -117 -116 0
118 -116 0
-118 116 0
-119 120 0
121 120 0
119 -121 -120 0
7 -120 0
-7 120 0
-122 123 0
124 123 0
122 -124 -123 0
8 -123 0
-8 123 0
-125 126 0
127 126 0
125 -127 -126 0
128 -126 0
-128 126 0
-129 130 0
131 130 0
129 -131 -130 0
132 -130 0
-132 130 0
-133 134 0
135 134 0
133 -135 -134 0
9 -134 0
-9 134 0
-136 137 0
138 137 0
136 -138 -137 0
10 -137 0
-10 137 0
-139 140 0
141 140 0
139 -141 -140 0
11 -140 0
-11 140 0
-142 143 0
144 143 0
142 -144 -143 0
145 -143 0
-145 143 0
-146 147 0
148 147 0
146 -148 -147 0
149 -147 0
-149 147 0
-150 151 0
152 151 0
150 -152 -151 0
153 -151 0
-153 151 0
-154 155 0
156 155 0
154 -156 -155 0
157 -155 0
-157 155 0
-158 159 0
160 159 0
158 -160 -159 0
161 -159 0
-161 159 0
-162 163 0
164 163 0
162 -164 -163 0
12 -163 0
-12 163 0
-165 166 0
167 166 0
165 -167 -166 0
168 -166 0
-168 166 0
-169 170 0
171 170 0
169 -171 -170 0
172 -170 0
-172 170 0
-173 174 0
175 174 0
173 -175 -174 0
176 -174 0
-176 174 0
-177 178 0
179 178 0
177 -179 -178 0
180 -178 0
-180 178 0
-181 182 0
183 182 0
181 -183 -182 0
184 -182 0
-184 182 0
-185 186 0
187 186 0
185 -187 -186 0
13 -186 0
-13 186 0
-188 189 0
190 189 0
188 -190 -189 0
191 -189 0
-191 189 0
-192 193 0
194 193 0
192 -194 -193 0
195 -193 0
-195 193 0
-196 197 0
198 197 0
196 -198 -197 0
199 -197 0
-199 197 0
-200 201 0
202 201 0
200 -202 -201 0
203 -201 0
-203 201 0
-204 205 0
206 205 0
204 -206 -205 0
207 -205 0
-207 205 0
-208 209 0
210 209 0
208 -210 -209 0
211 -209 0
-211 209 0
-212 213 0
214 213 0
212 -214 -213 0
14 -213 0
-14 213 0
-215 216 0
217 216 0
215 -217 -216 0
218 -216 0
-218 216 0
-219 220 0
221 220 0
219 -221 -220 0
222 -220 0
-222 220 0
-223 224 0
225 224 0
223 -225 -224 0
226 -224 0
-226 224 0
-227 228 0
229 228 0
227 -229 -228 0
230 -228 0
-230 228 0
-231 232 0
233 232 0
231 -233 -232 0
234 -232 0
-234 232 0
-235 236 0
237 236 0
235 -237 -236 0
238 -236 0
-238 236 0
-239 240 0
241 240 0
239 -241 -240 0
15 -240 0
-15 240 0
-242 243 0
244 243 0
242 -244 -243 0
245 -243 0
-245 243 0
-246 247 0
248 247 0
246 -248 -247 0
249 -247 0
-249 247 0
-250 251 0
252 251 0
250 -252 -251 0
253 -251 0
-253 251 0
-254 255 0
256 255 0
254 -256 -255 0
16 -255 0
-16 255 0
-257 258 0
259 258 0
257 -259 -258 0
260 -258 0
-260 258 0
-261 262 0
263 262 0
261 -263 -262 0
264 -262 0
-264 262 0
-265 266 0
267 266 0
265 -267 -266 0
268 -266 0
-268 266 0
-269 270 0
271 270 0
269 -271 -270 0
272 -270 0
-272 270 0
-273 274 0
275 274 0
273 -275 -274 0
276 -274 0
-276 274 0
-277 278 0
279 278 0
277 -279 -278 0
17 -278 0
-17 278 0
-280 281 0
282 281 0
280 -282 -281 0
283 -281 0
-283 281 0
-284 285 0
286 285 0
284 -286 -285 0
287 -285 0
-287 285 0
-288 289 0
290 289 0
288 -290 -289 0
18 -289 0
-18 289 0
-291 292 0
293 292 0
291 -293 -292 0
294 -292 0
-294 292 0
-295 296 0
297 296 0
295 -297 -296 0
298 -296 0
-298 296 0
-299 300 0
301 300 0
299 -301 -300 0
302 -300 0
-302 300 0
-303 304 0
305 304 0
303 -305 -304 0
19 -304 0
-19 304 0
-306 307 0
308 307 0
306 -308 -307 0
309 -307 0
-309 307 0
-310 311 0
312 311 0
310 -312 -311 0
313 -311 0
-313 311 0
-314 315 0
316 315 0
314 -316 -315 0
20 -315 0
-20 315 0
-317 318 0
319 318 0
317 -319 -318 0
320 -318 0
-320 318 0
-321 322 0
323 322 0
321 -323 -322 0
324 -322 0
-324 322 0
-325 326 0
327 326 0
325 -327 -326 0
328 -326 0
-328 326 0
-329 330 0
-24 -331 330 0
24 329 -330 0
329 331 -330 0
21 -330 0
-21 330 0
-332 333 0
-334 -28 333 0
332 334 -333 0
28 332 -333 0
24 -333 0
-24 333 0
-335 336 0
-337 -31 336 0
335 337 -336 0
31 335 -336 0
28 -336 0
-28 336 0
-338 339 0
-35 -340 339 0
35 338 -339 0
338 340 -339 0
31 -339 0
-31 339 0
-341 342 0
-39 -343 342 0
39 341 -342 0
341 343 -342 0
35 -342 0
-35 342 0
-344 345 0
-346 -43 345 0
344 346 -345 0
43 344 -345 0
39 -345 0
-39 345 0
-347 348 0
-349 -341 348 0
-349 -344 -343 348 0
347 349 -348 0
341 347 349 -348 0
344 347 349 -348 0
341 344 347 -348 0
343 347 349 -348 0
341 343 347 -348 0
43 -348 0
-43 348 0
-350 351 0
-50 -352 351 0
50 350 -351 0
350 352 -351 0
47 -351 0
-47 351 0
-353 354 0
-355 -54 354 0
353 355 -354 0
54 353 -354 0
50 -354 0
-50 354 0
-356 357 0
-358 -58 357 0
356 358 -357 0
58 356 -357 0
54 -357 0
-54 357 0
-359 360 0
-361 -62 360 0
359 361 -360 0
62 359 -360 0
58 -360 0
-58 360 0
-362 363 0
-66 -364 363 0
66 362 -363 0
362 364 -363 0
62 -363 0
-62 363 0
-365 366 0
-356 -367 366 0
-358 -359 -367 366 0
-358 -361 -362 -367 366 0
356 358 365 -366 0
358 365 367 -366 0
356 358 359 365 -366 0
358 359 365 367 -366 0
356 358 365 367 -366 0
356 358 361 365 -366 0
358 361 365 367 -366 0
356 359 361 365 -366 0
359 361 365 367 -366 0
356 361 365 367 -366 0
361 365 367 -366 0
356 358 362 365 -366 0
358 362 365 367 -366 0
356 359 362 365 -366 0
359 362 365 367 -366 0
356 362 365 367 -366 0
362 365 367 -366 0
356 359 365 367 -366 0
359 365 367 -366 0
356 365 367 -366 0
365 367 -366 0
66 -366 0
-66 366 0
-368 369 0
-73 -370 369 0
73 368 -369 0
368 370 -369 0
70 -369 0
-70 369 0
-371 372 0
-373 -77 372 0
371 373 -372 0
77 371 -372 0
73 -372 0
-73 372 0
-374 375 0
-376 -81 375 0
374 376 -375 0
81 374 -375 0
77 -375 0
-77 375 0
-377 378 0
-85 -379 378 0
85 377 -378 0
377 379 -378 0
81 -378 0
-81 378 0
-380 381 0
-89 -382 381 0
89 380 -381 0
380 382 -381 0
85 -381 0
-85 381 0
-383 384 0
-374 -385 384 0
-376 -377 -385 384 0
-386 0
374 376 383 -384 0
376 383 385 -384 0
374 376 377 383 -384 0
376 377 383 385 -384 0
374 376 383 385 -384 0
374 376 380 383 -384 0
376 380 383 385 -384 0
374 377 380 383 -384 0
377 380 383 385 -384 0
374 380 383 385 -384 0
380 383 385 -384 0
374 376 379 383 -384 0
376 379 383 385 -384 0
374 377 379 383 -384 0
377 379 383 385 -384 0
374 379 383 385 -384 0
379 383 385 -384 0
374 377 383 385 -384 0
377 383 385 -384 0
374 383 385 -384 0
383 385 -384 0
89 -384 0
-89 384 0
-387 388 0
-96 -389 388 0
96 387 -388 0
387 389 -388 0
93 -388 0
-93 388 0
-390 391 0
-392 -100 391 0
390 392 -391 0
100 390 -391 0
96 -391 0
-96 391 0
-393 394 0
-395 -104 394 0
393 395 -394 0
104 393 -394 0
100 -394 0
-100 394 0
-396 397 0
-393 -398 397 0
393 396 -397 0
396 398 -397 0
104 -397 0
-104 397 0
-399 400 0
-111 -401 400 0
111 399 -400 0
399 401 -400 0
108 -400 0
-108 400 0
-402 403 0
-404 -115 403 0
402 404 -403 0
115 402 -403 0
111 -403 0
-111 403 0
115 -405 0
405 -115 0
-406 407 0
-408 -28 407 0
406 408 -407 0
28 406 -407 0
119 -407 0
-119 407 0
-409 410 0
-411 -125 410 0
409 411 -410 0
125 409 -410 0
122 -410 0
-122 410 0
-412 413 0
-414 -129 413 0
412 414 -413 0
129 412 -413 0
125 -413 0
-125 413 0
-415 416 0
-119 -417 416 0
119 415 -416 0
415 417 -416 0
129 -416 0
-129 416 0
-418 419 0
-420 -73 419 0
418 420 -419 0
73 418 -419 0
133 -419 0
-133 419 0
-421 422 0
-31 -423 422 0
31 421 -422 0
421 423 -422 0
136 -422 0
-136 422 0
-424 425 0
-142 -426 425 0
142 424 -425 0
424 426 -425 0
139 -425 0
-139 425 0
-427 428 0
-429 -146 428 0
427 429 -428 0
146 427 -428 0
142 -428 0
-142 428 0
-430 431 0
-150 -432 431 0
150 430 -431 0
430 432 -431 0
146 -431 0
-146 431 0
-433 434 0
-154 -435 434 0
154 433 -434 0
433 435 -434 0
150 -434 0
-150 434 0
-436 437 0
-438 -158 437 0
436 438 -437 0
158 436 -437 0
154 -437 0
-154 437 0
-439 440 0
-441 -433 440 0
-441 -436 -435 440 0
439 441 -440 0
433 439 441 -440 0
436 439 441 -440 0
433 436 439 -440 0
435 439 441 -440 0
433 435 439 -440 0
158 -440 0
-158 440 0
-442 443 0
-165 -444 443 0
165 442 -443 0
442 444 -443 0
162 -443 0
-162 443 0
-445 446 0
-447 -169 446 0
445 447 -446 0
169 445 -446 0
165 -446 0
-165 446 0
-448 449 0
-173 -450 449 0
173 448 -449 0
448 450 -449 0
169 -449 0
-169 449 0
-451 452 0
-453 -177 452 0
451 453 -452 0
177 451 -452 0
173 -452 0
-173 452 0
-454 455 0
-181 -456 455 0
181 454 -455 0
454 456 -455 0
177 -455 0
-177 455 0
-457 458 0
-448 -459 458 0
-451 -450 -459 458 0
-460 0
448 451 453 457 -458 0
451 453 457 459 -458 0
448 450 453 457 -458 0
450 453 457 459 -458 0
448 453 457 459 -458 0
453 457 459 -458 0
448 451 454 457 -458 0
451 454 457 459 -458 0
448 450 454 457 -458 0
450 454 457 459 -458 0
448 454 457 459 -458 0
454 457 459 -458 0
448 450 451 457 -458 0
450 451 457 459 -458 0
448 450 457 -458 0
450 457 459 -458 0
448 450 457 459 -458 0
448 451 457 459 -458 0
451 457 459 -458 0
448 457 459 -458 0
457 459 -458 0
181 -458 0
-181 458 0
-461 462 0
-463 -188 462 0
461 463 -462 0
188 461 -462 0
185 -462 0
-185 462 0
-464 465 0
-466 -192 465 0
464 466 -465 0
192 464 -465 0
188 -465 0
-188 465 0
-467 468 0
-469 -196 468 0
467 469 -468 0
196 467 -468 0
192 -468 0
-192 468 0
-470 471 0
-200 -472 471 0
200 470 -471 0
470 472 -471 0
196 -471 0
-196 471 0
-473 474 0
-475 -204 474 0
473 475 -474 0
204 473 -474 0
200 -474 0
-200 474 0
-476 477 0
-208 -478 477 0
208 476 -477 0
476 478 -477 0
204 -477 0
-204 477 0
-479 480 0
-473 -481 480 0
-475 -476 -481 480 0
473 475 479 -480 0
475 479 481 -480 0
473 476 479 -480 0
476 479 481 -480 0
473 479 481 -480 0
479 481 -480 0
208 -480 0
-208 480 0
-482 483 0
-215 -484 483 0
215 482 -483 0
482 484 -483 0
212 -483 0
-212 483 0
-485 486 0
-487 -219 486 0
485 487 -486 0
219 485 -486 0
215 -486 0
-215 486 0
-488 489 0
-490 -223 489 0
488 490 -489 0
223 488 -489 0
219 -489 0
-219 489 0
-491 492 0
-493 -227 492 0
491 493 -492 0
227 491 -492 0
223 -492 0
-223 492 0
-494 495 0
-231 -496 495 0
231 494 -495 0
494 496 -495 0
227 -495 0
-227 495 0
-497 498 0
-499 -235 498 0
497 499 -498 0
235 497 -498 0
231 -498 0
-231 498 0
-500 501 0
-491 -502 501 0
-493 -502 -494 501 0
-503 0
491 493 500 -501 0
493 500 502 -501 0
491 493 500 502 -501 0
491 493 494 500 -501 0
493 494 500 502 -501 0
491 493 496 500 -501 0
493 496 500 502 -501 0
491 496 500 502 -501 0
496 500 502 -501 0
491 494 496 500 -501 0
494 496 500 502 -501 0
491 500 502 -501 0
500 502 -501 0
491 494 500 502 -501 0
494 500 502 -501 0
491 493 497 500 -501 0
493 497 500 502 -501 0
491 497 500 502 -501 0
497 500 502 -501 0
491 494 497 500 -501 0
494 497 500 502 -501 0
235 -501 0
-235 501 0
-504 505 0
-506 -242 505 0
504 506 -505 0
242 504 -505 0
239 -505 0
-239 505 0
-507 508 0
-509 -246 508 0
507 509 -508 0
246 507 -508 0
242 -508 0
-242 508 0
-510 511 0
-250 -512 511 0
250 510 -511 0
510 512 -511 0
246 -511 0
-246 511 0
-513 514 0
-504 -515 514 0
-506 -515 -507 514 0
-516 0
504 506 513 -514 0
506 513 515 -514 0
504 506 513 515 -514 0
504 506 507 513 -514 0
506 507 513 515 -514 0
504 506 509 513 -514 0
506 509 513 515 -514 0
504 509 513 515 -514 0
509 513 515 -514 0
504 507 509 513 -514 0
507 509 513 515 -514 0
504 506 510 513 -514 0
506 510 513 515 -514 0
504 510 513 515 -514 0
510 513 515 -514 0
504 507 510 513 -514 0
507 510 513 515 -514 0
504 513 515 -514 0
513 515 -514 0
504 507 513 515 -514 0
507 513 515 -514 0
250 -514 0
-250 514 0
-517 518 0
-257 -519 518 0
257 517 -518 0
517 519 -518 0
254 -518 0
-254 518 0
-520 521 0
-522 -261 521 0
520 522 -521 0
261 520 -521 0
257 -521 0
-257 521 0
-523 524 0
-525 -265 524 0
523 525 -524 0
265 523 -524 0
261 -524 0
-261 524 0
-526 527 0
-269 -528 527 0
269 526 -527 0
526 528 -527 0
265 -527 0
-265 527 0
-529 530 0
-531 -273 530 0
529 531 -530 0
273 529 -530 0
269 -530 0
-269 530 0
-532 533 0
-526 -534 533 0
-529 -528 -534 533 0
526 529 532 -533 0
529 532 534 -533 0
526 528 532 -533 0
528 532 534 -533 0
526 532 534 -533 0
532 534 -533 0
273 -533 0
-273 533 0
-535 536 0
-537 -280 536 0
535 537 -536 0
280 535 -536 0
277 -536 0
-277 536 0
-538 539 0
-284 -540 539 0
284 538 -539 0
538 540 -539 0
280 -539 0
-280 539 0
-541 542 0
-543 -62 542 0
541 543 -542 0
62 541 -542 0
284 -542 0
-284 542 0
-544 545 0
-546 -291 545 0
544 546 -545 0
291 544 -545 0
288 -545 0
-288 545 0
-547 548 0
-549 -295 548 0
547 549 -548 0
295 547 -548 0
291 -548 0
-291 548 0
-550 551 0
-552 -299 551 0
550 552 -551 0
299 550 -551 0
295 -551 0
-295 551 0
-553 554 0
-550 -555 554 0
550 553 -554 0
553 555 -554 0
299 -554 0
-299 554 0
-556 557 0
-306 -558 557 0
306 556 -557 0
556 558 -557 0
303 -557 0
-303 557 0
-559 560 0
-561 -310 560 0
559 561 -560 0
310 559 -560 0
306 -560 0
-306 560 0
-562 563 0
-43 -564 563 0
43 562 -563 0
562 564 -563 0
310 -563 0
-310 563 0
-565 566 0
-317 -567 566 0
317 565 -566 0
565 567 -566 0
314 -566 0
-314 566 0
-568 569 0
-321 -570 569 0
321 568 -569 0
568 570 -569 0
317 -569 0
-317 569 0
-571 572 0
-573 -325 572 0
571 573 -572 0
325 571 -572 0
321 -572 0
-321 572 0
-574 575 0
-158 -576 575 0
158 574 -575 0
574 576 -575 0
325 -575 0
-325 575 0
331 0
-334 0
-337 0
340 0
343 0
-346 0
-349 0
352 0
-355 0
-358 0
-361 0
364 0
367 0
370 0
-373 0
-376 0
379 0
382 0
385 0
389 0
-392 0
-395 0
398 0
401 0
-404 0
577 0
-408 0
-411 0
-414 0
417 0
-420 0
423 0
426 0
-429 0
432 0
435 0
-438 0
-441 0
444 0
-447 0
450 0
-453 0
456 0
459 0
-463 0
-466 0
-469 0
472 0
-475 0
478 0
481 0
484 0
-487 0
-490 0
-493 0
496 0
-499 0
502 0
-506 0
-509 0
512 0
515 0
519 0
-522 0
-525 0
528 0
-531 0
534 0
-537 0
540 0
-543 0
-546 0
-549 0
-552 0
555 0
558 0
-561 0
564 0
567 0
570 0
-573 0
576 0
-329 0
-332 0
-335 0
-338 0
-341 0
-344 0
-347 0
-350 0
-353 0
-356 0
-359 0
-362 0
-365 0
-368 0
-371 0
-374 0
-377 0
-380 0
-383 0
-387 0
-390 0
-393 0
-396 0
-399 0
-402 0
-405 0
-406 0
-409 0
-412 0
-415 0
-418 0
-421 0
-424 0
-427 0
430 0
433 0
-436 0
439 0
-442 0
-445 0
448 0
-451 0
-454 0
457 0
-461 0
-464 0
-467 0
470 0
473 0
-476 0
-479 0
-482 0
-485 0
488 0
-491 0
494 0
497 0
-500 0
-504 0
507 0
-510 0
-513 0
-517 0
-520 0
523 0
526 0
-529 0
-532 0
-535 0
538 0
541 0
-544 0
547 0
550 0
553 0
-556 0
-559 0
562 0
-565 0
-568 0
-571 0
574 0
-578 -579 0
-578 23 0
-578 -26 0
-578 -30 0
-578 33 0
-578 37 0
-578 -41 0
-578 -45 0
-578 49 0
-578 -52 0
-578 -56 0
-578 -60 0
-578 64 0
68 -578 0
72 -578 0
-578 -75 0
-578 -79 0
-578 83 0
-578 87 0
-578 91 0
-578 95 0
-578 -98 0
-578 -102 0
-578 106 0
-578 110 0
-578 -113 0
-578 117 0
-578 -121 0
-578 -124 0
-578 -127 0
-578 131 0
-578 -135 0
-578 138 0
-578 141 0
-578 -144 0
-578 148 0
-578 152 0
-578 -156 0
-578 -160 0
-578 164 0
-578 -167 0
-578 171 0
-578 -175 0
-578 179 0
-578 183 0
-578 -187 0
-578 -190 0
-578 -194 0
-578 198 0
-578 -202 0
-578 206 0
-578 210 0
-578 214 0
-578 -217 0
-578 -221 0
-578 -225 0
-578 229 0
-578 -233 0
-578 237 0
-578 -241 0
-578 -244 0
-578 248 0
-578 252 0
-578 256 0
-578 -259 0
-578 -263 0
-578 267 0
-578 -271 0
-578 275 0
-578 -279 0
-578 282 0
-578 -286 0
-578 -290 0
-578 -293 0
-578 -297 0
-578 301 0
-578 305 0
-578 -308 0
-578 312 0
-578 316 0
-578 319 0
-578 -323 0
-578 327 0
-579 -23 0
-579 -26 0
-579 -30 0
-579 -33 0
-579 -37 0
-579 -41 0
-579 -45 0
-579 -49 0
-579 -52 0
-579 -56 0
-579 -60 0
-579 -64 0
-579 -68 0
-579 -72 0
-579 -75 0
-579 -79 0
-579 -83 0
-579 -87 0
-579 -91 0
-579 -95 0
-579 -98 0
-579 -102 0
-579 -106 0
-579 -110 0
-579 -113 0
-579 -117 0
-579 -121 0
-579 -124 0
-579 -127 0
-579 -131 0
-579 -135 0
-579 -138 0
-579 -141 0
-579 -144 0
-579 148 0
-579 152 0
-579 -156 0
-579 160 0
-579 -164 0
-579 -167 0
-579 171 0
-579 -175 0
-579 -179 0
-579 183 0
-579 -187 0
-579 -190 0
-579 -194 0
-579 198 0
-579 202 0
-579 -206 0
-579 -210 0
-579 -214 0
-579 -217 0
-579 221 0
-579 -225 0
-579 229 0
-579 233 0
-579 -237 0
-579 -241 0
-579 244 0
-579 -248 0
-579 -252 0
-579 -256 0
-579 -259 0
-579 263 0
-579 267 0
-579 -271 0
-579 -275 0
-579 -279 0
-579 282 0
-579 286 0
-579 -290 0
-579 293 0
-579 297 0
-579 301 0
-579 -305 0
-579 -308 0
-579 312 0
-579 -316 0
-579 -319 0
-579 -323 0
-579 327 0
578 579 0
-580 0
-581 0
-582 0
-583 0
-584 0
-585 0
-586 0
-587 0
